# Solution for model GasLib-40
# Objective value = 1.5173725773457315e+01
loadshed[innode_1] 0
loadshed[innode_2] 0
loadshed[innode_3] 0
loadshed[innode_4] 0
loadshed[innode_5] 0
loadshed[innode_6] 0
loadshed[innode_7] 0
loadshed[innode_8] 0
loadshed[source_1] -2.0396362828864278e-01
loadshed[source_2] -3.4645166077394762e-02
loadshed[source_3] 3.3459019174697069e-01
loadshed[sink_1] 0
loadshed[sink_2] 0
loadshed[sink_3] 0
loadshed[sink_4] 0
loadshed[sink_5] 0
loadshed[sink_6] 0
loadshed[sink_7] 0
loadshed[sink_8] 0
loadshed[sink_9] 0
loadshed[sink_10] 0
loadshed[sink_11] 0
loadshed[sink_12] 9.2782017468274025e-01
loadshed[sink_13] 0
loadshed[sink_14] 0
loadshed[sink_15] 0
loadshed[sink_16] 0
loadshed[sink_17] 0
loadshed[sink_18] 0
loadshed[sink_19] 0
loadshed[sink_20] 0
loadshed[sink_21] 0
loadshed[sink_22] 0
loadshed[sink_23] 0
loadshed[sink_24] 0
loadshed[sink_25] 0
loadshed[sink_26] 0
loadshed[sink_27] 0
loadshed[sink_28] 0
loadshed[sink_29] 0
flow[source_1,sink_3] 1.9033494443049273e+02
flow[innode_1,sink_16] 1.6354166666666970e+01
flow[innode_6,sink_13] 9.2843452438882341e+00
flow[sink_13,sink_14] -7.0698214227784337e+00
flow[sink_14,sink_10] -2.3423988089445174e+01
flow[sink_25,sink_26] 2.3013877422654363e+02
flow[sink_26,sink_9] 1.4836794089321012e+02
flow[sink_9,sink_18] 1.3201377422654346e+02
flow[sink_26,sink_4] 6.5416666666666671e+01
flow[sink_4,sink_20] 1.9401072958387633e+01
flow[sink_18,sink_6] 1.1565960755987680e+02
flow[sink_25,innode_8] -1.5762661109715634e+02
flow[sink_6,sink_7] 6.6597107559876349e+01
flow[sink_6,sink_22] 3.2708333333333641e+01
flow[sink_7,sink_24] 3.3888774226542687e+01
flow[sink_22,sink_1] 1.6354166666666970e+01
flow[sink_24,sink_21] 1.7534607559876019e+01
flow[sink_21,sink_12] 1.1804408932093517e+00
flow[sink_7,sink_5] 1.6354166666667368e+01
flow[sink_5,sink_17] 0
flow[sink_17,sink_4] -2.9661427041612342e+01
flow[sink_17,sink_8] 1.3307260374945638e+01
flow[sink_3,sink_23] 16.3541666666697
flow[sink_8,sink_20] -3.0469062917210294e+00
flow[sink_25,sink_20] 0
flow[sink_25,sink_15] -9.8150675039942456e+01
flow[sink_15,sink_29] -6.3714989290864573e+01
flow[sink_29,sink_28] 1.6354166666667879e+01
flow[sink_29,sink_2] 6.7144019082411234e+01
flow[sink_2,sink_15] 5.0789852415744562e+01
flow[sink_29,innode_7] -1.6356734170661036e+02
flow[innode_4,sink_19] 4.0196789774368945e+01
flow[sink_19,innode_3] 7.2486488089445587e+01
flow[innode_4,innode_5] 64.9980316484103
flow[sink_27,innode_5] -64.9980316484103
flow[sink_27,sink_19] 4.8643864981743633e+01
flow[sink_10,sink_11] 3.2708333333333641e+01
flow[sink_10,innode_2] 0
flow[sink_10,innode_3] -7.2486488089445587e+01
flow[innode_6,sink_25] -9.2843452438882341e+00
flow[sink_11,innode_1] 1.6354166666666970e+01
flow[sink_19,innode_2] 0
flow[source_3,innode_4] 1.0519482142277926e+02
flow[source_2,innode_7] 1.6356734170661036e+02
flow[sink_3,innode_8] 1.5762661109715634e+02
pressure[innode_1] 7.5213375957563656e+01
pressure[innode_2] 7.9384775624236212e+01
pressure[innode_3] 7.9224262504566468e+01
pressure[innode_4] 81.01325
pressure[innode_5] 80.9685409264754
pressure[innode_6] 7.4295686515355257e+01
pressure[innode_7] 81.01325
pressure[innode_8] 80.3770329913531
pressure[source_1] 81.01325
pressure[source_2] 81.01325
pressure[source_3] 81.01325
pressure[sink_1] 3.9240758293638187e+01
pressure[sink_2] 7.4937630603694032e+01
pressure[sink_3] 80.3770329913531
pressure[sink_4] 4.9769903493695423e+01
pressure[sink_5] 3.3626046333812134e+01
pressure[sink_6] 4.1341835904025558e+01
pressure[sink_7] 4.0427616360706850e+01
pressure[sink_8] 4.8134224052338325e+01
pressure[sink_9] 4.9206943610013766e+01
pressure[sink_10] 75.3650772651672
pressure[sink_11] 7.5213375957563656e+01
pressure[sink_12] 1.01325
pressure[sink_13] 7.4244503471583926e+01
pressure[sink_14] 7.4257155519235610e+01
pressure[sink_15] 74.7718129294598
pressure[sink_16] 7.4191726122745976e+01
pressure[sink_17] 4.8636341557697364e+01
pressure[sink_18] 4.4430291789781144e+01
pressure[sink_19] 7.9384775624236212e+01
pressure[sink_20] 4.8346550571402261e+01
pressure[sink_21] 1.4333154755856263e+00
pressure[sink_22] 4.0304527435993194e+01
pressure[sink_23] 8.0212314979693318e+01
pressure[sink_24] 1.6274949627178565e+00
pressure[sink_25] 7.4295686515355257e+01
pressure[sink_26] 5.8087147799586866e+01
pressure[sink_27] 8.0429177367242076e+01
pressure[sink_28] 7.6343182110055935e+01
pressure[sink_29] 7.6638464383673124e+01
interdiction[source_1,sink_3] 0
interdiction[innode_1,sink_16] 0
interdiction[innode_6,sink_13] 0
interdiction[sink_13,sink_14] 0
interdiction[sink_14,sink_10] 0
interdiction[sink_25,sink_26] 0
interdiction[sink_26,sink_9] 0
interdiction[sink_9,sink_18] 0
interdiction[sink_26,sink_4] 0
interdiction[sink_4,sink_20] 0
interdiction[sink_18,sink_6] 0
interdiction[sink_25,innode_8] 0
interdiction[sink_6,sink_7] 0
interdiction[sink_6,sink_22] 0
interdiction[sink_7,sink_24] 0
interdiction[sink_22,sink_1] 0
interdiction[sink_24,sink_21] 0
interdiction[sink_21,sink_12] 0
interdiction[sink_7,sink_5] 0
interdiction[sink_5,sink_17] 1
interdiction[sink_17,sink_4] 0
interdiction[sink_17,sink_8] 0
interdiction[sink_3,sink_23] 0
interdiction[sink_8,sink_20] 0
interdiction[sink_25,sink_20] 1
interdiction[sink_25,sink_15] 0
interdiction[sink_15,sink_29] 0
interdiction[sink_29,sink_28] 0
interdiction[sink_29,sink_2] 0
interdiction[sink_2,sink_15] 0
interdiction[sink_29,innode_7] 0
interdiction[innode_4,sink_19] 0
interdiction[sink_19,innode_3] 0
interdiction[innode_4,innode_5] 0
interdiction[sink_27,innode_5] 0
interdiction[sink_27,sink_19] 0
interdiction[sink_10,sink_11] 0
interdiction[sink_10,innode_2] 1
interdiction[sink_10,innode_3] 0
interdiction[innode_6,sink_25] 0
interdiction[sink_11,innode_1] 0
interdiction[sink_19,innode_2] 0
interdiction[source_3,innode_4] 0
interdiction[source_2,innode_7] 0
interdiction[sink_3,innode_8] 0
WCcheckFlow[source_1,sink_3] 39
WCcheckFlow[innode_1,sink_16] 1
WCcheckFlow[innode_6,sink_13] 13
WCcheckFlow[sink_13,sink_14] 12
WCcheckFlow[sink_14,sink_10] 11
WCcheckFlow[sink_25,sink_26] 15
WCcheckFlow[sink_26,sink_9] 10
WCcheckFlow[sink_9,sink_18] 9
WCcheckFlow[sink_26,sink_4] 4
WCcheckFlow[sink_4,sink_20] 1
WCcheckFlow[sink_18,sink_6] 8
WCcheckFlow[sink_25,innode_8] -36
WCcheckFlow[sink_6,sink_7] 5
WCcheckFlow[sink_6,sink_22] 2
WCcheckFlow[sink_7,sink_24] 3
WCcheckFlow[sink_22,sink_1] 1
WCcheckFlow[sink_24,sink_21] 2
WCcheckFlow[sink_21,sink_12] 1
WCcheckFlow[sink_7,sink_5] 1
WCcheckFlow[sink_5,sink_17] 0
WCcheckFlow[sink_17,sink_4] -2
WCcheckFlow[sink_17,sink_8] 1
WCcheckFlow[sink_3,sink_23] 1
WCcheckFlow[sink_8,sink_20] 0
WCcheckFlow[sink_25,sink_20] 0
WCcheckFlow[sink_25,sink_15] 6
WCcheckFlow[sink_15,sink_29] 5
WCcheckFlow[sink_29,sink_28] 1
WCcheckFlow[sink_29,sink_2] 1
WCcheckFlow[sink_2,sink_15] 0
WCcheckFlow[sink_29,innode_7] 2
WCcheckFlow[innode_4,sink_19] -4
WCcheckFlow[sink_19,innode_3] -6
WCcheckFlow[innode_4,innode_5] 2
WCcheckFlow[sink_27,innode_5] -1
WCcheckFlow[sink_27,sink_19] 0
WCcheckFlow[sink_10,sink_11] 3
WCcheckFlow[sink_10,innode_2] 0
WCcheckFlow[sink_10,innode_3] 7
WCcheckFlow[innode_6,sink_25] -14
WCcheckFlow[sink_11,innode_1] 2
WCcheckFlow[sink_19,innode_2] 1
WCcheckFlow[source_3,innode_4] -1
WCcheckFlow[source_2,innode_7] -1
WCcheckFlow[sink_3,innode_8] 37
